&GLOBAL
  PROJECT Al10
  RUN_TYPE GEO_OPT
  PRINT_LEVEL LOW
&END GLOBAL
&FORCE_EVAL
  METHOD QS
  &SUBSYS
    &CELL
      ABC 12.4138 12.4138 12.4138
    &END CELL
    &COORD
      Al         2.8303400000       -2.4919600000       -0.1160100000
      Al         2.5072219279       -1.3782509828        2.2301153118
      Al         2.5078793039        0.9252298354        1.1116537908
      Al         3.3723826859       -0.1122550637       -1.0626182894
      Al         0.7916556679        0.4085042573       -1.0078621336
      Al         0.1573173481       -0.4996413565        1.4222252497
    &END COORD
    &KIND Al
      BASIS_SET DZVP-GTH-BLYP
      POTENTIAL GTH-PBE-q3
    &END KIND
  &END SUBSYS
  &DFT
    BASIS_SET_FILE_NAME ./BASIS_SET
    POTENTIAL_FILE_NAME ./POTENTIAL
    &QS
      EPS_DEFAULT 1.0E-7
    &END QS
    &MGRID
      CUTOFF 200
      NGRIDS 4
      REL_CUTOFF 30
    &END MGRID
    &SCF
      SCF_GUESS ATOMIC
      EPS_SCF 1.0E-05
      MAX_SCF 200
      &DIAGONALIZATION T
        ALGORITHM STANDARD
      &END DIAGONALIZATION
      &MIXING T
        ALPHA 0.5
        METHOD PULAY_MIXING
        NPULAY 5
      &END MIXING
      &PRINT
        &RESTART OFF
        &END RESTART
      &END PRINT
    &END SCF
    &XC
      &XC_FUNCTIONAL PADE
      &END XC_FUNCTIONAL
    &END XC
  &END DFT
&END FORCE_EVAL
&MOTION
  &GEO_OPT
    TYPE MINIMIZATION
    MAX_DR    1.0E-03
    MAX_FORCE 1.0E-03
    RMS_DR    1.0E-03
    RMS_FORCE 1.0E-03
    MAX_ITER 200
    OPTIMIZER CG
    &CG
      MAX_STEEP_STEPS  0
      RESTART_LIMIT 9.0E-01
    &END CG
  &END GEO_OPT
  &CONSTRAINT
    &FIXED_ATOMS
      COMPONENTS_TO_FIX XYZ
      LIST 1
    &END FIXED_ATOMS
  &END CONSTRAINT
&END MOTION